DIMENSION : 20
Capacity : 30
Vehicles : 5
Vehicle_Capacity_Section
1 40
2 30
3 25
4 35
5 90
NODE_COORD_SECTION
1 12.9775 80.21943
2 12.967382 80.221178
3 12.99288 80.2155
4 12.9849 80.21945
5 12.97934 80.20944
6 12.97927 80.21899
7 12.97841 80.21957
8 12.97708 80.22123
9 12.9773 80.22239
10 12.97924 80.22336
11 12.9805 80.22365
12 12.98097 80.22332
13 12.98137 80.22521
14 12.9839450000069 80.2226199999746
15 12.99482 80.21756
16 12.9730050000017 80.2198299999898
17 12.98167 80.223
18 12.98129 80.22533
19 12.979379653930664 80.21846771240234
20 12.9754 80.22395
DEMAND_SECTION
1 0
2 14
3 10
4 8
5 7
6 12
7 11
8 5
9 6
10 7
11 7
12 4
13 5
14 2
15 5
16 2
17 6
18 7
19 7
20 3
